0 7774 
1 7768 
2 7766 
3 7762 
4 7756 
5 7754 
6 7740 
7 7736 
8 7734 
9 7730 
10 7710 
11 7706 
12 7702 
13 7700 
14 7692 
15 7680 
16 7672 
17 7652 
18 7648 
19 7648 
20 7646 
21 7644 
22 7642 
23 7628 
24 7622 
25 7620 
26 7618 
27 7614 
28 7602 
29 7598 
30 7578 
31 7568 
32 7566 
33 7554 
34 7552 
35 7542 
36 7534 
37 7530 
38 7478 
39 7466 
40 7462 
41 7452 
42 7450 
43 7448 
44 7448 
45 7446 
46 7442 
47 7438 
48 7430 
49 7430 
50 7402 
51 7382 
52 7378 
53 7370 
54 7364 
55 7360 
56 7330 
57 7328 
58 7324 
59 7320 
60 7316 
61 7312 
62 7272 
63 7268 
64 7264 
65 7258 
66 7256 
67 7248 
68 7248 
69 7244 
70 7242 
71 7222 
72 7220 
73 7216 
74 7214 
75 7210 
76 7208 
77 7208 
78 7204 
79 7194 
80 7186 
81 7182 
82 7178 
83 7174 
84 7170 
85 7162 
86 7160 
87 7152 
88 7148 
89 7148 
90 7146 
91 7142 
92 7136 
93 7132 
94 7128 
95 7128 
96 7126 
97 7126 
98 7118 
99 7114 
100 7098 
101 7090 
102 7088 
103 7076 
104 7072 
105 7072 
106 7066 
107 7066 
108 7066 
109 7066 
110 7064 
111 7064 
112 7064 
113 7046 
114 7046 
115 7046 
116 7046 
117 7046 
118 7046 
119 7046 
120 7046 
121 7046 
122 7046 
123 7046 
124 7046 
125 7046 
126 7046 
127 7046 
128 7046 
129 7046 
130 7046 
131 7046 
132 7046 
133 7046 
134 7046 
135 7046 
136 7046 
137 7046 
138 7046 
139 7046 
140 7046 
141 7046 
142 7046 
143 7046 
144 7046 
145 7046 
146 7046 
147 7046 
148 7046 
149 7046 
150 7046 
151 7046 
152 7046 
153 7046 
154 7046 
155 7046 
156 7046 
157 7046 
158 7046 
159 7046 
160 7046 
161 7046 
162 7046 
163 7046 
164 7046 
165 7046 
166 7046 
167 7046 
168 7046 
169 7046 
170 7046 
171 7046 
172 7046 
173 7046 
174 7046 
175 7046 
176 7046 
177 7046 
178 7046 
179 7046 
180 7046 
181 7046 
182 7046 
183 7046 
184 7046 
185 7046 
186 7046 
187 7046 
188 7046 
189 7046 
190 7046 
191 7046 
192 7046 
193 7046 
194 7046 
195 7046 
196 7046 
197 7046 
198 7046 
199 7046 
200 7046 
201 7046 
202 7046 
203 7046 
204 7046 
205 7046 
206 7046 
207 7046 
208 7046 
209 7046 
210 7046 
211 7046 
212 7046 
213 7046 
214 7046 
215 7046 
216 7046 
217 7046 
218 7046 
219 7046 
220 7046 
221 7046 
222 7046 
223 7046 
224 7046 
225 7046 
226 7046 
227 7046 
228 7046 
229 7046 
230 7046 
231 7046 
232 7046 
233 7046 
234 7046 
235 7046 
236 7046 
237 7046 
238 7046 
239 7046 
240 7046 
241 7046 
242 7046 
243 7046 
244 7046 
245 7046 
246 7046 
247 7046 
248 7046 
249 7046 
250 7046 
251 7046 
252 7046 
253 7046 
254 7046 
255 7046 
256 7046 
257 7046 
258 7046 
259 7046 
260 7046 
261 7046 
262 7046 
263 7046 
264 7046 
265 7046 
266 7046 
267 7046 
268 7046 
269 7046 
270 7046 
271 7046 
272 7046 
273 7046 
274 7046 
275 7046 
276 7046 
277 7046 
278 7046 
279 7046 
280 7046 
281 7046 
282 7046 
283 7046 
284 7046 
285 7046 
286 7046 
287 7046 
288 7046 
289 7046 
290 7046 
291 7046 
292 7046 
293 7046 
294 7046 
295 7046 
296 7046 
297 7046 
298 7046 
299 7046 
300 7046 
301 7046 
302 7046 
303 7046 
304 7046 
305 7046 
306 7046 
307 7046 
308 7046 
309 7046 
310 7046 
311 7046 
312 7046 
313 7046 
314 7046 
315 7046 
316 7046 
317 7046 
318 7046 
319 7046 
320 7046 
321 7046 
322 7046 
323 7046 
324 7046 
325 7046 
326 7046 
327 7046 
328 7046 
329 7046 
330 7046 
331 7046 
332 7046 
333 7046 
334 7046 
335 7046 
336 7046 
337 7046 
338 7046 
339 7046 
340 7046 
341 7046 
342 7046 
343 7046 
344 7046 
345 7046 
346 7046 
347 7046 
348 7046 
349 7046 
350 7046 
351 7046 
352 7046 
353 7046 
354 7046 
355 7046 
356 7046 
357 7046 
358 7046 
359 7046 
360 7046 
361 7046 
362 7046 
363 7046 
364 7046 
365 7046 
366 7046 
367 7046 
368 7046 
369 7046 
370 7046 
371 7046 
372 7046 
373 7046 
374 7046 
375 7046 
376 7046 
377 7046 
378 7046 
379 7046 
380 7046 
381 7046 
382 7046 
383 7046 
384 7046 
385 7046 
386 7046 
387 7046 
388 7046 
389 7046 
390 7046 
391 7046 
392 7046 
393 7046 
394 7046 
395 7046 
396 7046 
397 7046 
398 7046 
399 7046 
400 7046 
401 7046 
402 7046 
403 7046 
404 7046 
405 7046 
406 7046 
407 7046 
408 7046 
409 7046 
410 7046 
411 7046 
412 7046 
413 7046 
414 7046 
415 7046 
416 7046 
417 7046 
418 7046 
419 7046 
420 7046 
421 7046 
422 7046 
423 7046 
424 7046 
425 7046 
426 7046 
427 7046 
428 7046 
429 7046 
430 7046 
431 7046 
432 7046 
433 7046 
434 7046 
435 7046 
436 7046 
437 7046 
438 7046 
439 7046 
440 7046 
441 7046 
442 7046 
443 7046 
444 7046 
445 7046 
446 7046 
447 7046 
448 7046 
449 7046 
450 7046 
451 7046 
452 7046 
453 7046 
454 7046 
455 7046 
456 7046 
457 7046 
458 7046 
459 7046 
460 7046 
461 7046 
462 7046 
463 7046 
464 7046 
465 7046 
466 7046 
467 7046 
468 7046 
469 7046 
470 7046 
471 7046 
472 7046 
473 7046 
474 7046 
475 7046 
476 7046 
477 7046 
478 7046 
479 7046 
480 7046 
481 7046 
482 7046 
483 7046 
484 7046 
485 7046 
486 7046 
487 7046 
488 7046 
489 7046 
490 7046 
491 7046 
492 7046 
493 7046 
494 7046 
495 7046 
496 7046 
497 7046 
498 7046 
499 7046 
500 7046 
501 7046 
502 7046 
503 7046 
504 7046 
505 7046 
506 7046 
507 7046 
508 7046 
509 7046 
510 7046 
511 7046 
512 7046 
513 7046 
514 7046 
515 7046 
516 7046 
517 7046 
518 7046 
519 7046 
520 7046 
521 7046 
522 7046 
523 7046 
524 7046 
525 7046 
526 7046 
527 7046 
528 7046 
529 7046 
530 7046 
531 7046 
532 7046 
533 7046 
534 7046 
535 7046 
536 7046 
537 7046 
538 7046 
539 7046 
540 7046 
541 7046 
542 7046 
543 7046 
544 7046 
545 7046 
546 7046 
547 7046 
548 7046 
549 7046 
550 7046 
551 7046 
552 7046 
553 7046 
554 7046 
555 7046 
556 7046 
557 7046 
558 7046 
559 7046 
560 7046 
561 7046 
562 7046 
563 7046 
564 7046 
565 7046 
566 7046 
567 7046 
568 7046 
569 7046 
570 7046 
571 7046 
572 7046 
573 7046 
574 7046 
575 7046 
576 7046 
577 7046 
578 7046 
579 7046 
580 7046 
581 7046 
582 7046 
583 7046 
584 7046 
585 7046 
586 7046 
587 7046 
588 7046 
589 7046 
590 7046 
591 7046 
592 7046 
593 7046 
594 7046 
595 7046 
596 7046 
597 7046 
598 7046 
599 7046 
600 7046 
601 7046 
602 7046 
603 7046 
604 7046 
605 7046 
606 7046 
607 7046 
608 7046 
609 7046 
610 7046 
611 7046 
612 7046 
613 7046 
614 7046 
615 7046 
616 7046 
617 7046 
618 7046 
619 7046 
620 7046 
621 7046 
622 7046 
623 7046 
624 7046 
625 7046 
626 7046 
627 7046 
628 7046 
629 7046 
630 7046 
631 7046 
632 7046 
633 7046 
634 7046 
635 7046 
636 7046 
637 7046 
638 7046 
639 7046 
640 7046 
641 7046 
642 7046 
643 7046 
644 7046 
645 7046 
646 7046 
647 7046 
648 7046 
649 7046 
650 7046 
651 7046 
652 7046 
653 7046 
654 7046 
655 7046 
656 7046 
657 7046 
658 7046 
659 7046 
660 7046 
661 7046 
662 7046 
663 7046 
664 7046 
665 7046 
666 7046 
667 7046 
668 7046 
669 7046 
670 7046 
671 7046 
672 7046 
673 7046 
674 7046 
675 7046 
676 7046 
677 7046 
678 7046 
679 7046 
680 7046 
681 7046 
682 7046 
683 7046 
684 7046 
685 7046 
686 7046 
687 7046 
688 7046 
689 7046 
690 7046 
691 7046 
692 7046 
693 7046 
694 7046 
695 7046 
696 7046 
697 7046 
698 7046 
699 7046 
700 7046 
701 7046 
702 7046 
703 7046 
704 7046 
705 7046 
706 7046 
707 7046 
708 7046 
709 7046 
710 7046 
711 7046 
712 7046 
713 7046 
714 7046 
715 7046 
716 7046 
717 7046 
718 7046 
719 7046 
720 7046 
721 7046 
722 7046 
723 7046 
724 7046 
725 7046 
726 7046 
727 7046 
728 7046 
729 7046 
730 7046 
731 7046 
732 7046 
733 7046 
734 7046 
735 7046 
736 7046 
737 7046 
738 7046 
739 7046 
740 7046 
741 7046 
742 7046 
743 7046 
744 7046 
745 7046 
746 7046 
747 7046 
748 7046 
749 7046 
750 7046 
751 7046 
752 7046 
753 7046 
754 7046 
755 7046 
756 7046 
757 7046 
758 7046 
759 7046 
760 7046 
761 7046 
762 7046 
763 7046 
764 7046 
765 7046 
766 7046 
767 7046 
768 7046 
769 7046 
770 7046 
771 7046 
772 7046 
773 7046 
774 7046 
775 7046 
776 7046 
777 7046 
778 7046 
779 7046 
780 7046 
781 7046 
782 7046 
783 7046 
784 7046 
785 7046 
786 7046 
787 7046 
788 7046 
789 7046 
790 7046 
791 7046 
792 7046 
793 7046 
794 7046 
795 7046 
796 7046 
797 7046 
798 7046 
799 7046 
800 7046 
801 7046 
802 7046 
803 7046 
804 7046 
805 7046 
806 7046 
807 7046 
808 7046 
809 7046 
810 7046 
811 7046 
812 7046 
813 7046 
814 7046 
815 7046 
816 7046 
817 7046 
818 7046 
819 7046 
820 7046 
821 7046 
822 7046 
823 7046 
824 7046 
825 7046 
826 7046 
827 7046 
828 7046 
829 7046 
830 7046 
831 7046 
832 7046 
833 7046 
834 7046 
835 7046 
836 7046 
837 7046 
838 7046 
839 7046 
840 7046 
841 7046 
842 7046 
843 7046 
844 7046 
845 7046 
846 7046 
847 7046 
848 7046 
849 7046 
850 7046 
851 7046 
852 7046 
853 7046 
854 7046 
855 7046 
856 7046 
857 7046 
858 7046 
859 7046 
860 7046 
861 7046 
862 7046 
863 7046 
864 7046 
865 7046 
866 7046 
867 7046 
868 7046 
869 7046 
870 7046 
871 7046 
872 7046 
873 7046 
874 7046 
875 7046 
876 7046 
877 7046 
878 7046 
879 7046 
880 7046 
881 7046 
882 7046 
883 7046 
884 7046 
885 7046 
886 7046 
887 7046 
888 7046 
889 7046 
890 7046 
891 7046 
892 7046 
893 7046 
894 7046 
895 7046 
896 7046 
897 7046 
898 7046 
899 7046 
900 7046 
901 7046 
902 7046 
903 7046 
904 7046 
905 7046 
906 7046 
907 7046 
908 7046 
909 7046 
910 7046 
911 7046 
912 7046 
913 7046 
914 7046 
915 7046 
916 7046 
917 7046 
918 7046 
919 7046 
920 7046 
921 7046 
922 7046 
923 7046 
924 7046 
925 7046 
926 7046 
927 7046 
928 7046 
929 7046 
930 7046 
931 7046 
932 7046 
933 7046 
934 7046 
935 7046 
936 7046 
937 7046 
938 7046 
939 7046 
940 7046 
941 7046 
942 7046 
943 7046 
944 7046 
945 7046 
946 7046 
947 7046 
948 7046 
949 7046 
950 7046 
951 7046 
952 7046 
953 7046 
954 7046 
955 7046 
956 7046 
957 7046 
958 7046 
959 7046 
960 7046 
961 7046 
962 7046 
963 7046 
964 7046 
965 7046 
966 7046 
967 7046 
968 7046 
969 7046 
970 7046 
971 7046 
972 7046 
973 7046 
974 7046 
975 7046 
976 7046 
977 7046 
978 7046 
979 7046 
980 7046 
981 7046 
982 7046 
983 7046 
984 7046 
985 7046 
986 7046 
987 7046 
988 7046 
989 7046 
990 7046 
991 7046 
992 7046 
993 7046 
994 7046 
995 7046 
996 7046 
997 7046 
998 7046 
999 7046 
1000 7046 
1001 7046 
1002 7046 
1003 7046 
1004 7046 
1005 7046 
1006 7046 
1007 7046 
1008 7046 
1009 7046 
1010 7046 
1011 7046 
1012 7046 
1013 7046 
1014 7046 
1015 7046 
1016 7046 
1017 7046 
1018 7046 
1019 7046 
1020 7046 
1021 7046 
1022 7046 
1023 7046 
1024 7046 
1025 7046 
1026 7046 
1027 7046 
1028 7046 
1029 7046 
1030 7046 
1031 7046 
1032 7046 
1033 7046 
1034 7046 
1035 7046 
1036 7046 
1037 7046 
1038 7046 
1039 7046 
1040 7046 
1041 7046 
1042 7046 
1043 7046 
1044 7046 
1045 7046 
1046 7046 
1047 7046 
1048 7046 
1049 7046 
1050 7046 
1051 7046 
1052 7046 
1053 7046 
1054 7046 
1055 7046 
1056 7046 
1057 7046 
1058 7046 
1059 7046 
1060 7046 
1061 7046 
1062 7046 
1063 7046 
1064 7046 
1065 7046 
1066 7046 
1067 7046 
1068 7046 
1069 7046 
1070 7046 
1071 7046 
1072 7046 
1073 7046 
1074 7046 
1075 7046 
1076 7046 
1077 7046 
1078 7046 
1079 7046 
1080 7046 
1081 7046 
1082 7046 
1083 7046 
1084 7046 
1085 7046 
1086 7046 
1087 7046 
1088 7046 
1089 7046 
1090 7046 
1091 7046 
1092 7046 
1093 7046 
1094 7046 
1095 7046 
1096 7046 
1097 7046 
1098 7046 
1099 7046 
1100 7046 
1101 7046 
1102 7046 
1103 7046 
1104 7046 
1105 7046 
1106 7046 
1107 7046 
1108 7046 
1109 7046 
1110 7046 
1111 7046 
1112 7046 
1113 7046 
1114 7046 
1115 7046 
1116 7046 
1117 7046 
1118 7046 
1119 7046 
1120 7046 
1121 7046 
1122 7046 
1123 7046 
1124 7046 
1125 7046 
1126 7046 
1127 7046 
1128 7046 
1129 7046 
1130 7046 
1131 7046 
1132 7046 
1133 7046 
1134 7046 
1135 7046 
1136 7046 
1137 7046 
1138 7046 
1139 7046 
1140 7046 
1141 7046 
1142 7046 
1143 7046 
1144 7046 
1145 7046 
1146 7046 
1147 7046 
1148 7046 
1149 7046 
1150 7046 
1151 7046 
1152 7046 
1153 7046 
1154 7046 
1155 7046 
1156 7046 
1157 7046 
1158 7046 
1159 7046 
1160 7046 
1161 7046 
1162 7046 
1163 7046 
1164 7046 
1165 7046 
1166 7046 
1167 7046 
1168 7046 
1169 7046 
1170 7046 
1171 7046 
1172 7046 
1173 7046 
1174 7046 
1175 7046 
1176 7046 
1177 7046 
1178 7046 
1179 7046 
1180 7046 
1181 7046 
1182 7046 
1183 7046 
1184 7046 
1185 7046 
1186 7046 
1187 7046 
1188 7046 
1189 7046 
1190 7046 
1191 7046 
1192 7046 
1193 7046 
1194 7046 
1195 7046 
1196 7046 
1197 7046 
1198 7046 
1199 7046 
1200 7046 
1201 7046 
1202 7046 
1203 7046 
1204 7046 
1205 7046 
1206 7046 
1207 7046 
1208 7046 
1209 7046 
1210 7046 
1211 7046 
1212 7046 
1213 7046 
1214 7046 
1215 7046 
1216 7046 
1217 7046 
1218 7046 
1219 7046 
1220 7046 
1221 7046 
1222 7046 
1223 7046 
1224 7046 
1225 7046 
1226 7046 
1227 7046 
1228 7046 
1229 7046 
1230 7046 
1231 7046 
1232 7046 
1233 7046 
1234 7046 
1235 7046 
1236 7046 
1237 7046 
1238 7046 
1239 7046 
1240 7046 
1241 7046 
1242 7046 
1243 7046 
1244 7046 
1245 7046 
1246 7046 
1247 7046 
1248 7046 
1249 7046 
1250 7046 
1251 7046 
1252 7046 
1253 7046 
1254 7046 
1255 7046 
1256 7046 
1257 7046 
1258 7046 
1259 7046 
1260 7046 
1261 7046 
1262 7046 
1263 7046 
1264 7046 
1265 7046 
1266 7046 
1267 7046 
1268 7046 
1269 7046 
1270 7046 
1271 7046 
1272 7046 
1273 7046 
1274 7046 
1275 7046 
1276 7046 
1277 7046 
1278 7046 
1279 7046 
1280 7046 
1281 7046 
1282 7046 
1283 7046 
1284 7046 
1285 7046 
1286 7046 
1287 7046 
1288 7046 
1289 7046 
1290 7046 
1291 7046 
1292 7046 
1293 7046 
1294 7046 
1295 7046 
1296 7046 
1297 7046 
1298 7046 
1299 7046 
1300 7046 
1301 7046 
1302 7046 
1303 7046 
1304 7046 
1305 7046 
1306 7046 
1307 7046 
1308 7046 
1309 7046 
1310 7046 
1311 7046 
1312 7046 
1313 7046 
1314 7046 
1315 7046 
1316 7046 
1317 7046 
1318 7046 
1319 7046 
1320 7046 
1321 7046 
1322 7046 
1323 7046 
1324 7046 
1325 7046 
1326 7046 
1327 7046 
1328 7046 
1329 7046 
1330 7046 
1331 7046 
1332 7046 
1333 7046 
1334 7046 
1335 7046 
1336 7046 
1337 7046 
1338 7046 
1339 7046 
1340 7046 
1341 7046 
1342 7046 
1343 7046 
1344 7046 
1345 7046 
1346 7046 
1347 7046 
1348 7046 
1349 7046 
1350 7046 
1351 7046 
1352 7046 
1353 7046 
1354 7046 
1355 7046 
1356 7046 
1357 7046 
1358 7046 
1359 7046 
1360 7046 
1361 7046 
1362 7046 
1363 7046 
1364 7046 
1365 7046 
1366 7046 
1367 7046 
1368 7046 
1369 7046 
1370 7046 
1371 7046 
1372 7046 
1373 7046 
1374 7046 
1375 7046 
1376 7046 
1377 7046 
1378 7046 
1379 7046 
1380 7046 
1381 7046 
1382 7046 
1383 7046 
1384 7046 
1385 7046 
1386 7046 
1387 7046 
1388 7046 
1389 7046 
1390 7046 
1391 7046 
1392 7046 
1393 7046 
1394 7046 
1395 7046 
1396 7046 
1397 7046 
1398 7046 
1399 7046 
1400 7046 
1401 7046 
1402 7046 
1403 7046 
1404 7046 
1405 7046 
1406 7046 
1407 7046 
1408 7046 
1409 7046 
1410 7046 
1411 7046 
1412 7046 
1413 7046 
1414 7046 
1415 7046 
1416 7046 
1417 7046 
1418 7046 
1419 7046 
1420 7046 
1421 7046 
1422 7046 
1423 7046 
1424 7046 
1425 7046 
1426 7046 
1427 7046 
1428 7046 
1429 7046 
1430 7046 
1431 7046 
1432 7046 
1433 7046 
1434 7046 
1435 7046 
1436 7046 
1437 7046 
1438 7046 
1439 7046 
1440 7046 
1441 7046 
1442 7046 
1443 7046 
1444 7046 
1445 7046 
1446 7046 
1447 7046 
1448 7046 
1449 7046 
1450 7046 
1451 7046 
1452 7046 
1453 7046 
1454 7046 
1455 7046 
1456 7046 
1457 7046 
1458 7046 
1459 7046 
1460 7046 
1461 7046 
1462 7046 
1463 7046 
1464 7046 
1465 7046 
1466 7046 
1467 7046 
1468 7046 
1469 7046 
1470 7046 
1471 7046 
1472 7046 
1473 7046 
1474 7046 
1475 7046 
1476 7046 
1477 7046 
1478 7046 
1479 7046 
1480 7046 
1481 7046 
1482 7046 
1483 7046 
1484 7046 
1485 7046 
1486 7046 
1487 7046 
1488 7046 
1489 7046 
1490 7046 
1491 7046 
1492 7046 
1493 7046 
1494 7046 
1495 7046 
1496 7046 
1497 7046 
1498 7046 
1499 7046 
1500 7046 
1501 7046 
1502 7046 
1503 7046 
1504 7046 
1505 7046 
1506 7046 
1507 7046 
1508 7046 
1509 7046 
1510 7046 
1511 7046 
1512 7046 
1513 7046 
1514 7046 
1515 7046 
1516 7046 
1517 7046 
1518 7046 
1519 7046 
1520 7046 
1521 7046 
1522 7046 
1523 7046 
1524 7046 
1525 7046 
1526 7046 
1527 7046 
1528 7046 
1529 7046 
1530 7046 
1531 7046 
1532 7046 
1533 7046 
1534 7046 
1535 7046 
1536 7046 
1537 7046 
1538 7046 
1539 7046 
1540 7046 
1541 7046 
1542 7046 
1543 7046 
1544 7046 
1545 7046 
1546 7046 
1547 7046 
1548 7046 
1549 7046 
1550 7046 
1551 7046 
1552 7046 
1553 7046 
1554 7046 
1555 7046 
1556 7046 
1557 7046 
1558 7046 
1559 7046 
1560 7046 
1561 7046 
1562 7046 
1563 7046 
1564 7046 
1565 7046 
1566 7046 
1567 7046 
1568 7046 
1569 7046 
1570 7046 
1571 7046 
1572 7046 
1573 7046 
1574 7046 
1575 7046 
1576 7046 
1577 7046 
1578 7046 
1579 7046 
1580 7046 
1581 7046 
1582 7046 
1583 7046 
1584 7046 
1585 7046 
1586 7046 
1587 7046 
1588 7046 
1589 7046 
1590 7046 
1591 7046 
1592 7046 
1593 7046 
1594 7046 
1595 7046 
1596 7046 
1597 7046 
1598 7046 
1599 7046 
1600 7046 
1601 7046 
1602 7046 
1603 7046 
1604 7046 
1605 7046 
1606 7046 
1607 7046 
1608 7046 
1609 7046 
1610 7046 
1611 7046 
1612 7046 
1613 7046 
1614 7046 
1615 7046 
1616 7046 
1617 7046 
1618 7046 
1619 7046 
1620 7046 
1621 7046 
1622 7046 
1623 7046 
1624 7046 
1625 7046 
1626 7046 
1627 7046 
1628 7046 
1629 7046 
1630 7046 
1631 7046 
1632 7046 
1633 7046 
1634 7046 
1635 7046 
1636 7046 
1637 7046 
1638 7046 
1639 7046 
1640 7046 
1641 7046 
1642 7046 
1643 7046 
1644 7046 
1645 7046 
1646 7046 
1647 7046 
1648 7046 
1649 7046 
1650 7046 
1651 7046 
1652 7046 
1653 7046 
1654 7046 
1655 7046 
1656 7046 
1657 7046 
1658 7046 
1659 7046 
1660 7046 
1661 7046 
1662 7046 
1663 7046 
1664 7046 
1665 7046 
1666 7046 
1667 7046 
1668 7046 
1669 7046 
1670 7046 
1671 7046 
1672 7046 
1673 7046 
1674 7046 
1675 7046 
1676 7046 
1677 7046 
1678 7046 
1679 7046 
1680 7046 
1681 7046 
1682 7046 
1683 7046 
1684 7046 
1685 7046 
1686 7046 
1687 7046 
1688 7046 
1689 7046 
1690 7046 
1691 7046 
1692 7046 
1693 7046 
1694 7046 
1695 7046 
1696 7046 
1697 7046 
1698 7046 
1699 7046 
1700 7046 
1701 7046 
1702 7046 
1703 7046 
1704 7046 
1705 7046 
1706 7046 
1707 7046 
1708 7046 
1709 7046 
1710 7046 
1711 7046 
1712 7046 
1713 7046 
1714 7046 
1715 7046 
1716 7046 
1717 7046 
1718 7046 
1719 7046 
1720 7046 
1721 7046 
1722 7046 
1723 7046 
1724 7046 
1725 7046 
1726 7046 
1727 7046 
1728 7046 
1729 7046 
1730 7046 
1731 7046 
1732 7046 
1733 7046 
1734 7046 
1735 7046 
1736 7046 
1737 7046 
1738 7046 
1739 7046 
1740 7046 
1741 7046 
1742 7046 
1743 7046 
1744 7046 
1745 7046 
1746 7046 
1747 7046 
1748 7046 
1749 7046 
1750 7046 
1751 7046 
1752 7046 
1753 7046 
1754 7046 
1755 7046 
1756 7046 
1757 7046 
1758 7046 
1759 7046 
1760 7046 
1761 7046 
1762 7046 
1763 7046 
1764 7046 
1765 7046 
1766 7046 
1767 7046 
1768 7046 
1769 7046 
1770 7046 
1771 7046 
1772 7046 
1773 7046 
1774 7046 
1775 7046 
1776 7046 
1777 7046 
1778 7046 
1779 7046 
1780 7046 
1781 7046 
1782 7046 
1783 7046 
1784 7046 
1785 7046 
1786 7046 
1787 7046 
1788 7046 
1789 7046 
1790 7046 
1791 7046 
1792 7046 
1793 7046 
1794 7046 
1795 7046 
1796 7046 
1797 7046 
1798 7046 
1799 7046 
1800 7046 
1801 7046 
1802 7046 
1803 7046 
1804 7046 
1805 7046 
1806 7046 
1807 7046 
1808 7046 
1809 7046 
1810 7046 
1811 7046 
1812 7046 
1813 7046 
1814 7046 
1815 7046 
1816 7046 
1817 7046 
1818 7046 
1819 7046 
1820 7046 
1821 7046 
1822 7046 
1823 7046 
1824 7046 
1825 7046 
1826 7046 
1827 7046 
1828 7046 
1829 7046 
1830 7046 
1831 7046 
1832 7046 
1833 7046 
1834 7046 
1835 7046 
1836 7046 
1837 7046 
1838 7046 
1839 7046 
1840 7046 
1841 7046 
1842 7046 
1843 7046 
1844 7046 
1845 7046 
1846 7046 
1847 7046 
1848 7046 
1849 7046 
1850 7046 
1851 7046 
1852 7046 
1853 7046 
1854 7046 
1855 7046 
1856 7046 
1857 7046 
1858 7046 
1859 7046 
1860 7046 
1861 7046 
1862 7046 
1863 7046 
1864 7046 
1865 7046 
1866 7046 
1867 7046 
1868 7046 
1869 7046 
1870 7046 
1871 7046 
1872 7046 
1873 7046 
1874 7046 
1875 7046 
1876 7046 
1877 7046 
1878 7046 
1879 7046 
1880 7046 
1881 7046 
1882 7046 
1883 7046 
1884 7046 
1885 7046 
1886 7046 
1887 7046 
1888 7046 
1889 7046 
1890 7046 
1891 7046 
1892 7046 
1893 7046 
1894 7046 
1895 7046 
1896 7046 
1897 7046 
1898 7046 
1899 7046 
1900 7046 
1901 7046 
1902 7046 
1903 7046 
1904 7046 
1905 7046 
1906 7046 
1907 7046 
1908 7046 
1909 7046 
1910 7046 
1911 7046 
1912 7046 
1913 7046 
1914 7046 
1915 7046 
1916 7046 
1917 7046 
1918 7046 
1919 7046 
1920 7046 
1921 7046 
1922 7046 
1923 7046 
1924 7046 
1925 7046 
1926 7046 
1927 7046 
1928 7046 
1929 7046 
1930 7046 
1931 7046 
1932 7046 
1933 7046 
1934 7046 
1935 7046 
1936 7046 
1937 7046 
1938 7046 
1939 7046 
1940 7046 
1941 7046 
1942 7046 
1943 7046 
1944 7046 
1945 7046 
1946 7046 
1947 7046 
1948 7046 
1949 7046 
1950 7046 
1951 7046 
1952 7046 
1953 7046 
1954 7046 
1955 7046 
1956 7046 
1957 7046 
1958 7046 
1959 7046 
1960 7046 
1961 7046 
1962 7046 
1963 7046 
1964 7046 
1965 7046 
1966 7046 
1967 7046 
1968 7046 
1969 7046 
1970 7046 
1971 7046 
1972 7046 
1973 7046 
1974 7046 
1975 7046 
1976 7046 
1977 7046 
1978 7046 
1979 7046 
1980 7046 
1981 7046 
1982 7046 
1983 7046 
1984 7046 
1985 7046 
1986 7046 
1987 7046 
1988 7046 
1989 7046 
1990 7046 
1991 7046 
1992 7046 
1993 7046 
1994 7046 
1995 7046 
1996 7046 
1997 7046 
1998 7046 
1999 7046 
2000 7046 
2001 7046 
2002 7046 
2003 7046 
2004 7046 
2005 7046 
2006 7046 
2007 7046 
2008 7046 
2009 7046 
2010 7046 
2011 7046 
2012 7046 
2013 7046 
2014 7046 
2015 7046 
2016 7046 
2017 7046 
2018 7046 
2019 7046 
2020 7046 
2021 7046 
2022 7046 
2023 7046 
2024 7046 
2025 7046 
2026 7046 
2027 7046 
2028 7046 
2029 7046 
2030 7046 
2031 7046 
2032 7046 
2033 7046 
2034 7046 
2035 7046 
2036 7046 
2037 7046 
2038 7046 
2039 7046 
2040 7046 
2041 7046 
2042 7046 
2043 7046 
2044 7046 
2045 7046 
2046 7046 
2047 7046 
2048 7046 
2049 7046 
2050 7046 
2051 7046 
2052 7046 
2053 7046 
2054 7046 
2055 7046 
2056 7046 
2057 7046 
2058 7046 
2059 7046 
2060 7046 
2061 7046 
2062 7046 
2063 7046 
2064 7046 
2065 7046 
2066 7046 
2067 7046 
2068 7046 
2069 7046 
2070 7046 
2071 7046 
2072 7046 
2073 7046 
2074 7046 
2075 7046 
2076 7046 
2077 7046 
2078 7046 
2079 7046 
2080 7046 
2081 7046 
2082 7046 
2083 7046 
2084 7046 
2085 7046 
2086 7046 
2087 7046 
2088 7046 
2089 7046 
2090 7046 
2091 7046 
2092 7046 
2093 7046 
2094 7046 
2095 7046 
2096 7046 
2097 7046 
2098 7046 
2099 7046 
2100 7046 
2101 7046 
2102 7046 
2103 7046 
2104 7046 
2105 7046 
2106 7046 
2107 7046 
2108 7046 
2109 7046 
2110 7046 
2111 7046 
2112 7046 
2113 7046 

